N = 8;
H = 6;
T = 2;

avail = array3d(1..N, 1..H, 1..T, [1, 5, 8, 0, 6, 4, 9, 6, 3, 5, 2, 3, 2, 1, 8, 2, 7, 1, 0, 7, 2, 10, 0, 2, 6, 10, 2, 0, 6, 3, 7, 1, 7, 3, 8, 1, 1, 6, 9, 3, 9, 9, 10, 6, 9, 3, 9, 6, 7, 5, 0, 4, 9, 1, 7, 3, 2, 3, 8, 9, 4, 7, 3, 4, 5, 5, 1, 8, 0, 5, 2, 4, 1, 7, 8, 6, 10, 3, 9, 6, 1, 10, 0, 4, 4, 8, 2, 10, 5, 5, 10, 0, 5, 7, 8, 7]);

r = array2d(1..H, 1..T, [1, 1, 1, 3, 2, 1, 2, 1, 3, 2, 1, 3]);
